/*********************************************
    * Lab01 - FCR
    * Author: Coso
    * Creation Date: Mar, 2019
    *********************************************/
instance_name = "medium_instance_08_FCR";

d = 5;
r = 15;

SCj = [350 360 325 304 325];
Dk = [89 60 43 43 79 97 57 58 54 49 100 51 59 97 21];

Cjk = [[44 80 51 83 61 51 85 45 44 45 83 53 41 41 68]
 [87 50 44 59 40 69 61 60 64 72 36 70 73 55 53]
 [45 31 56 41 77 44 53 48 75 72 84 59 84 68 42]
 [83 65 67 70 43 34 37 82 67 79 67 34 86 86 71]
 [43 81 88 39 84 79 61 73 88 78 65 41 50 79 64]];
Fjk = [[493 768 452 899 921 921 504 409 919 607 644 918 483 605 798]
 [874 399 339 554 429 901 870 757 718 447 380 502 311 376 664]
 [689 677 489 631 489 739 723 450 832 401 347 869 437 562 855]
 [783 919 513 511 816 858 646 487 915 619 397 882 414 319 688]
 [357 807 523 586 388 691 561 658 564 920 372 439 711 552 793]];
